peakDumbCharging = 11100; 
Machine = anon_enum(16); 
machineSpeed = [3700,3700,3700,3700,3700,3700,3700,3700,3700,3700,3700,3700,3700,3700,3700,3700]; 
machineLoad = [3700,3700,3700,3700,3700,3700,3700,3700,3700,3700,3700,3700,3700,3700,3700,3700]; 
Car = anon_enum(13); 
demandCar = [11240,6160,10280,4000,2200,2240,4240,11600,6560,30000,5280,34280,32160]; 
arrivalCar = [80,72,70,69,62,60,58,58,49,42,38,31,30]; 
departureCar = [85,75,76,72,64,63,60,65,53,68,42,47,57]; 
